c description: Random 2-CNF over 15 variables and 45 clauses
c generator: CNFgen (0.9.0)
c copyright: (C) 2012-2020 Massimo Lauria <massimo.lauria@uniroma1.it>
c url: https://massimolauria.net/cnfgen
c
p cnf 15 45
11 -15 0
12 13 0
8 15 0
-1 11 0
5 10 0
-7 -11 0
3 5 0
-12 15 0
6 -12 0
-2 10 0
10 15 0
2 14 0
-1 2 0
14 15 0
-12 13 0
-1 -3 0
-9 12 0
-11 13 0
-7 9 0
-7 14 0
5 6 0
-4 6 0
-12 -14 0
9 -12 0
-2 11 0
6 7 0
1 14 0
14 -15 0
1 -12 0
6 14 0
4 -8 0
-9 -12 0
5 -10 0
7 -8 0
-2 9 0
-1 8 0
12 -14 0
4 -15 0
-10 12 0
8 -13 0
-6 11 0
5 -14 0
-1 14 0
-6 9 0
4 10 0